Supercell generated using super.py.
   1.000000000000
     8.763988928705  0.000000000000  0.000000000000
     0.000000000000  4.639108013747  -6.382972238881
     0.000000000000  9.278216027493  6.382972238881
  24  24  72
Direct
     0.238522011245  0.308612705018  0.058613101042
     0.011478037968  0.475280136283  0.225279360644
     0.261478133580  0.024720680595  0.274720217082
     0.488521988064  0.858053153412  0.108054003994
     0.238522011245  0.641946038351  0.391946434375
     0.011478037968  0.808613469617  0.558612693977
     0.488521988064  0.191386486745  0.441387337327
     0.011478037968  0.141946802950  0.891946027310
     0.261478133580  0.358054013928  0.608053550415
     0.238522011245  0.975279371684  0.725279767709
     0.488521988064  0.524719820078  0.774720670660
     0.261478133580  0.691387347261  0.941386883748
     0.738522011245  0.308612705018  0.058613101042
     0.511478037968  0.475280136283  0.225279360644
     0.761478133580  0.024720680595  0.274720217082
     0.988521988064  0.858053153412  0.108054003994
     0.738522011245  0.641946038351  0.391946434375
     0.511478037968  0.808613469617  0.558612693977
     0.988521988064  0.191386486745  0.441387337327
     0.511478037968  0.141946802950  0.891946027310
     0.761478133580  0.358054013928  0.608053550415
     0.738522011245  0.975279371684  0.725279767709
     0.988521988064  0.524719820078  0.774720670660
     0.761478133580  0.691387347261  0.941386883748
     0.499999980560  0.166666759470  0.166666722599
     0.250000184366  0.333333288856  0.333333299609
     0.499999980560  0.500000092803  0.500000055933
     0.499999925853  0.833333256736  0.333333296850
     0.250000074519  0.666666660372  0.166666732758
     0.250000184366  0.666666622189  0.666666632942
     0.499999925853  0.166666590069  0.666666630183
     0.499999980560  0.833333426137  0.833333389266
     0.250000074519  0.999999993706  0.500000066091
     0.250000184366  0.999999955523  0.999999966275
     0.499999925853  0.499999923403  0.999999963516
     0.250000074519  0.333333327039  0.833333399425
     0.999999980560  0.166666759470  0.166666722599
     0.750000184366  0.333333288856  0.333333299609
     0.999999980560  0.500000092803  0.500000055933
     0.999999925853  0.833333256736  0.333333296850
     0.750000074519  0.666666660372  0.166666732758
     0.750000184366  0.666666622189  0.666666632942
     0.999999925853  0.166666590069  0.666666630183
     0.999999980560  0.833333426137  0.833333389266
     0.750000074519  0.999999993706  0.500000066091
     0.750000184366  0.999999955523  0.999999966275
     0.999999925853  0.499999923403  0.999999963516
     0.750000074519  0.333333327039  0.833333399425
     0.092338076618  0.102645712344  0.045421892204
     0.442454094530  0.344511110550  0.094511579080
     0.157661929342  0.526346943221  0.083571093797
     0.192453968748  0.822155668627  0.072155058006
     0.407661911223  0.640319414901  0.083095567123
     0.157662634224  0.269312415234  0.212088700414
     0.342337442121  0.064020900812  0.121244644653
     0.192453968748  0.155489001960  0.405488391339
     0.407661943807  0.230687660823  0.287911462516
     0.057546043154  0.988822237963  0.238821760256
     0.307546066667  0.511177677601  0.261178278463
     0.092338076618  0.435979045677  0.378755225537
     0.442454094530  0.677844443883  0.427844912414
     0.157661929342  0.859680276554  0.416904427130
     0.407661911223  0.973652748235  0.416428900456
     0.157662634224  0.602645748567  0.545422033747
     0.342337404547  0.806986319188  0.249762099662
     0.092338148865  0.693013964662  0.250237795916
     0.057546043154  0.322155571296  0.572155093589
     0.342337442121  0.397354234145  0.454577977987
     0.442454094530  0.011177777217  0.761178245747
     0.157661929342  0.193013609887  0.750237760464
     0.192453968748  0.488822335293  0.738821724672
     0.407661911223  0.306986081568  0.749762233789
     0.407661943807  0.564020994157  0.621244795850
     0.342337404547  0.140319652521  0.583095432995
     0.092338148865  0.026347297995  0.583571129249
     0.307546066667  0.844511010934  0.594511611796
     0.092338076618  0.769312379011  0.712088558871
     0.157662634224  0.935979081901  0.878755367081
     0.057546043154  0.655488904630  0.905488426922
     0.342337442121  0.730687567478  0.787911311320
     0.307546066667  0.177844344267  0.927844945129
     0.407661943807  0.897354327490  0.954578129183
     0.342337404547  0.473652985855  0.916428766329
     0.092338148865  0.359680631328  0.916904462583
     0.592338076618  0.102645712344  0.045421892204
     0.942454094530  0.344511110550  0.094511579080
     0.657661929342  0.526346943221  0.083571093797
     0.692453968748  0.822155668627  0.072155058006
     0.907661911223  0.640319414901  0.083095567123
     0.657662634224  0.269312415234  0.212088700414
     0.842337442121  0.064020900812  0.121244644653
     0.692453968748  0.155489001960  0.405488391339
     0.907661943807  0.230687660823  0.287911462516
     0.557546043154  0.988822237963  0.238821760256
     0.807546066667  0.511177677601  0.261178278463
     0.592338076618  0.435979045677  0.378755225537
     0.942454094530  0.677844443883  0.427844912414
     0.657661929342  0.859680276554  0.416904427130
     0.907661911223  0.973652748235  0.416428900456
     0.657662634224  0.602645748567  0.545422033747
     0.842337404547  0.806986319188  0.249762099662
     0.592338148865  0.693013964662  0.250237795916
     0.557546043154  0.322155571296  0.572155093589
     0.842337442121  0.397354234145  0.454577977987
     0.942454094530  0.011177777217  0.761178245747
     0.657661929342  0.193013609887  0.750237760464
     0.692453968748  0.488822335293  0.738821724672
     0.907661911223  0.306986081568  0.749762233789
     0.907661943807  0.564020994157  0.621244795850
     0.842337404547  0.140319652521  0.583095432995
     0.592338148865  0.026347297995  0.583571129249
     0.807546066667  0.844511010934  0.594511611796
     0.592338076618  0.769312379011  0.712088558871
     0.657662634224  0.935979081901  0.878755367081
     0.557546043154  0.655488904630  0.905488426922
     0.842337442121  0.730687567478  0.787911311320
     0.807546066667  0.177844344267  0.927844945129
     0.907661943807  0.897354327490  0.954578129183
     0.842337404547  0.473652985855  0.916428766329
     0.592338148865  0.359680631328  0.916904462583
