MgSiO3 Perovskite --- after Yagi 1978   
   1.00000000000000     
     4.3819911062301067    0.0000000000000000    0.0000000000000000
     0.0000000000000000    4.6391115969747663    0.0000000000000000
     0.0000000000000000    0.0000000000000000    6.3829660789486917
   4   4  12
Direct
  0.9770444153913971  0.0741615015782671  0.2500008505819267
  0.4770444617524845  0.4258385669221525  0.7500003960243831
  0.0229556366735650  0.9258385173914689  0.7499992243603373
  0.5229558278960909  0.5741614549372400  0.2499995364869889
  0.9999999611204302  0.5000002046686518  0.9999999631294116
  0.5000003687323513  0.9999998880736740  0.0000000107528066
  0.9999998517061641  0.4999998504348468  0.5000000401136546
  0.5000001490386268  0.0000001258884907  0.5000000723859159
  0.1150919172329523  0.4664654059479219  0.2499995222924412
  0.6846746174774125  0.3065104347565750  0.0572236832164208
  0.6150919642584682  0.0335345870521380  0.7500006008619096
  0.1846758864709201  0.1934892521143681  0.9427762404854505
  0.8849083581349149  0.5335346212366332  0.7500004685302883
  0.3153241254479653  0.6934888861768158  0.5572240899510987
  0.3849081065711886  0.9664654321120310  0.2499993893789281
  0.8153240892094331  0.8065107937847671  0.4427762128468018
  0.3153255352127928  0.6934895714240739  0.9427763458055907
  0.8153241543777980  0.8065108304938633  0.0572237410675527
  0.6846745423298088  0.3065107631502713  0.4427758410992837
  0.1846760309652353  0.1934893118557568  0.5572237706288092
 
  0.00000000E+00  0.00000000E+00  0.00000000E+00
  0.00000000E+00  0.00000000E+00  0.00000000E+00
  0.00000000E+00  0.00000000E+00  0.00000000E+00
  0.00000000E+00  0.00000000E+00  0.00000000E+00
  0.00000000E+00  0.00000000E+00  0.00000000E+00
  0.00000000E+00  0.00000000E+00  0.00000000E+00
  0.00000000E+00  0.00000000E+00  0.00000000E+00
  0.00000000E+00  0.00000000E+00  0.00000000E+00
  0.00000000E+00  0.00000000E+00  0.00000000E+00
  0.00000000E+00  0.00000000E+00  0.00000000E+00
  0.00000000E+00  0.00000000E+00  0.00000000E+00
  0.00000000E+00  0.00000000E+00  0.00000000E+00
  0.00000000E+00  0.00000000E+00  0.00000000E+00
  0.00000000E+00  0.00000000E+00  0.00000000E+00
  0.00000000E+00  0.00000000E+00  0.00000000E+00
  0.00000000E+00  0.00000000E+00  0.00000000E+00
  0.00000000E+00  0.00000000E+00  0.00000000E+00
  0.00000000E+00  0.00000000E+00  0.00000000E+00
  0.00000000E+00  0.00000000E+00  0.00000000E+00
  0.00000000E+00  0.00000000E+00  0.00000000E+00
