B1 Mg4O4                                
1.0000000000000000
6.9114338668300093    0.0000000000000000    0.0000000000000000
0.0000000000000000    6.9114338668300093    0.0000000000000000
0.0000000000000000    0.0000000000000000    6.9114338668300093
  32  32
Direct
  0.1379949839406003  0.0800785808939392  0.1448851168506177
  0.3688634163088139  0.3238051419532353  0.1727303740724840
  0.3820380773534160  0.1161282613582569  0.3805468630603656
  0.1307090311618133  0.3536609807829296  0.4182239496556212
  0.1498397491434243  0.1375309046959566  0.6554867461786912
  0.4271012257447000  0.4140711801638103  0.6439790672016504
  0.3755794657800259  0.1596108193558845  0.8628475349224685
  0.1829919164589899  0.3905651602160177  0.9242727702392841
  0.1020386855657828  0.6056197054126485  0.1120579332502012
  0.3141633222970572  0.8466156716808280  0.1293398096296336
  0.4026064250327293  0.6184417847206898  0.3863420839225713
  0.0920356894493266  0.8660553928977534  0.3459905413947819
  0.1467599164254480  0.6259039132302610  0.6431528165585065
  0.3608910912338663  0.9116506911979485  0.6308858372828190
  0.3862756200607284  0.6669909429932800  0.9030268983084859
  0.0804842461548464  0.8735550536658235  0.8335765807916407
  0.6317299500804887  0.0677897852298985  0.1245517525184691
  0.8478253559415607  0.4156229733837936  0.1240038985181034
  0.8672525005801289  0.1370735987957885  0.3886980975426064
  0.6378420281051885  0.3664197448825580  0.4107805824523907
  0.6251552712789505  0.1293005068307443  0.6157135306052594
  0.8930400765103865  0.3528306497365702  0.5907888900864080
  0.8528194124791246  0.1723823561719363  0.9127716879922115
  0.6372394953072786  0.3678705475811144  0.8890754027722229
  0.5866675758936086  0.5875342496121048  0.1003038660296131
  0.8223273325823708  0.8820004858179578  0.0819549583166014
  0.9097356525541931  0.6054811789571715  0.3504598003097434
  0.6082422732825342  0.8103523941751238  0.3208935276240424
  0.6556310153209119  0.6486775905876616  0.6408518262634899
  0.8613995369623854  0.8715526434071762  0.5731449853296803
  0.8553164800522034  0.6189259478534326  0.8523425227920660
  0.5880857979406612  0.9012255464329576  0.8540172287598261
  0.4056457774255233  0.0834873023526770  0.1367934275404537
  0.1127856504045527  0.3311365009789069  0.1091327473138559
  0.1304641528379120  0.1368314632106440  0.3594327677363976
  0.3944963162590643  0.3475231271843394  0.4147352689663510
  0.4092291974254318  0.1539714503393829  0.6230251734071472
  0.1534059857808254  0.3829207171003606  0.6692769122684580
  0.1200639522370014  0.1623821529300213  0.8987302278682754
  0.4119564407621029  0.3857481484599901  0.8989318368669814
  0.3473347116609279  0.6078444209873682  0.1611606927550087
  0.0729392914564465  0.8625798540174076  0.1221840331547509
  0.1436807149945756  0.6116053847706391  0.4039192661218491
  0.3400416145953478  0.8880380786611688  0.3761429327342869
  0.4102382013425581  0.6579429952126385  0.6471243991616523
  0.1204717806168381  0.8837873017769685  0.5910788591438216
  0.1365034202157455  0.6336497593784609  0.8610250173904616
  0.3448905473222491  0.9065362244636186  0.8709506520886784
  0.8609785860897344  0.1128481461698004  0.1291719469357135
  0.6027797270216113  0.3664230919216225  0.1511363680046060
  0.6258158759135846  0.1173195089685020  0.3651909381837207
  0.9119492576611701  0.3818672063251052  0.3478012554594672
  0.9064113552480729  0.0990064500026192  0.6052723759442585
  0.6835405101668660  0.4152110691333385  0.6300523513783584
  0.6257034725744194  0.1506040506849363  0.8660154390655201
  0.8801348779603279  0.3738403230640616  0.8735892754790637
  0.8860925915623972  0.6518259407416584  0.0778701694413139
  0.5818567024981397  0.8461285473419433  0.0951737957731741
  0.6468507507824981  0.5911933691963326  0.4165128817644908
  0.8606197130278851  0.8803326313775304  0.3416867383866508
  0.9067478354076438  0.6333407065275469  0.6169900365324057
  0.6173980307266623  0.8920271689336340  0.5925178585670773
  0.6251554630175611  0.6600580212512498  0.8607723927792018
  0.8443055571428296  0.9054258134396939  0.8597183817016723
 
  -0.0017929370000000  -0.0107105380000000  -0.0056480783000000 
  -0.0048623083000000  -0.0066268710000000  0.0002140791800000 
  -0.0044668680000000  -0.0087187709000000  0.0127087070000000 
  0.0161936590000000  0.0216473280000000  0.0160296500000000 
  -0.0084798371000000  0.0197362840000000  0.0043585011000000 
  -0.0004531946000000  -0.0118797440000000  -0.0199250070000000 
  0.0248617140000000  -0.0463952250000000  -0.0041662815000000 
  0.0381403580000000  -0.0249295740000000  -0.0040367038000000 
  -0.0062814519000000  -0.0065652385000000  0.0015768138000000 
  -0.0145652990000000  -0.0171422650000000  -0.0348741290000000 
  -0.0196595320000000  -0.0020205180000000  0.0031382073000000 
  -0.0125616090000000  0.0152900400000000  0.0094292201000000 
  -0.0187116610000000  0.0224018700000000  -0.0084395872000000 
  0.0037065792000000  0.0076381054000000  -0.0373819180000000 
  0.0095207707000000  0.0142658040000000  0.0015130520000000 
  -0.0038788844000000  0.0430787010000000  0.0287048160000000 
  -0.0105923060000000  0.0213648450000000  -0.0142100640000000 
  -0.0046274610000000  -0.0104082890000000  -0.0139048410000000 
  0.0095309478000000  0.0061794926000000  0.0209899570000000 
  0.0053904693000000  -0.0044456898000000  0.0186250590000000 
  -0.0171773120000000  0.0087867727000000  0.0213689710000000 
  0.0182706810000000  0.0002576606600000  0.0074998723000000 
  -0.0123332740000000  -0.0322394710000000  0.0139493530000000 
  0.0057949323000000  -0.0005499232600000  0.0020710111000000 
  -0.0052852857000000  -0.0186640540000000  0.0007179427900000 
  0.0086173285000000  -0.0435520350000000  -0.0031931621000000 
  -0.0060892599000000  -0.0163259930000000  0.0090684407000000 
  0.0026594544000000  -0.0144741390000000  -0.0270792070000000 
  -0.0157447350000000  0.0017256459000000  0.0109880380000000 
  0.0317514130000000  0.0201011770000000  -0.0054595348000000 
  0.0009965225100000  -0.0073215763000000  0.0161317400000000 
  -0.0055508791000000  -0.0042939557000000  -0.0103803770000000 
  0.0192409080000000  0.0217343300000000  -0.0026620725000000 
  -0.0373799200000000  -0.0248718820000000  -0.0108555980000000 
  -0.0149245720000000  -0.0066474683000000  0.0138811550000000 
  0.0056189349000000  0.0396611650000000  -0.0029255342000000 
  0.0019337963000000  -0.0044569015000000  0.0088339119000000 
  0.0066735904000000  0.0151083410000000  -0.0010478737000000 
  -0.0022156795000000  0.0020873242000000  0.0209016170000000 
  -0.0050321197000000  -0.0184219510000000  -0.0078200114000000 
  -0.0054847909000000  0.0156196280000000  -0.0094391355000000 
  0.0107022860000000  0.0276683320000000  0.0096376459000000 
  0.0084257082000000  -0.0055551526000000  -0.0035243878000000 
  0.0153445570000000  0.0489727350000000  -0.0273081860000000 
  0.0165424130000000  0.0079764199000000  -0.0207702990000000 
  -0.0227132150000000  -0.0152819170000000  -0.0078639319000000 
  0.0169734890000000  0.0333214290000000  0.0307678000000000 
  0.0210829570000000  -0.0204281890000000  -0.0199869290000000 
  -0.0137261310000000  0.0535247480000000  0.0033567868000000 
  -0.0231642140000000  0.0054859734000000  0.0121772650000000 
  -0.0122070940000000  0.0192913530000000  -0.0160287250000000 
  -0.0285636660000000  -0.0232465880000000  0.0307959910000000 
  -0.0045894728000000  -0.0112099300000000  0.0089905733000000 
  -0.0047143325000000  -0.0192435010000000  -0.0022829667000000 
  -0.0013129339000000  0.0088532088000000  0.0143670830000000 
  -0.0023477060000000  0.0105653310000000  -0.0179681040000000 
  -0.0193600930000000  -0.0141825320000000  0.0285370810000000 
  -0.0276307220000000  0.0009861375400000  -0.0111534210000000 
  0.0213946860000000  -0.0081873053000000  -0.0246757250000000 
  -0.0124067700000000  0.0006382776800000  -0.0155326730000000 
  0.0330870200000000  0.0130570600000000  0.0040722861000000 
  0.0271978940000000  -0.0075870946000000  -0.0033971572000000 
  0.0312553210000000  0.0025104429000000  -0.0019185645000000 
  -0.0012254716000000  -0.0189402970000000  0.0050673342000000 
